data/medium_3.dzn
num_nodi = 6;
ufficio_postale = 4;
dim_borsa = 36;
max_step = 15;
elenco_lettere = [1, 9, 11, 0, 0, 0];
distanze = [|0, 22, 10, 5, 12, 19
|14, 0, 10, 16, 10, 1
|19, 22, 0, 7, 23, 9
|20, 1, 25, 0, 23, 7
|17, 6, 19, 23, 0, 3
|22, 14, 9, 4, 21, 0
|];
