data/medium_3.lp
node(1..6).

ufficio_postale(4).

dim_borsa(36).

time(1..15).

lettere(1,1).
lettere(2,9).
lettere(3,11).
lettere(4,0).
lettere(5,0).
lettere(6,0).

costo_arco(1, 1, 0).
costo_arco(1, 2, 22).
costo_arco(1, 3, 10).
costo_arco(1, 4, 5).
costo_arco(1, 5, 12).
costo_arco(1, 6, 19).

costo_arco(2, 1, 14).
costo_arco(2, 2, 0).
costo_arco(2, 3, 10).
costo_arco(2, 4, 16).
costo_arco(2, 5, 10).
costo_arco(2, 6, 1).

costo_arco(3, 1, 19).
costo_arco(3, 2, 22).
costo_arco(3, 3, 0).
costo_arco(3, 4, 7).
costo_arco(3, 5, 23).
costo_arco(3, 6, 9).

costo_arco(4, 1, 20).
costo_arco(4, 2, 1).
costo_arco(4, 3, 25).
costo_arco(4, 4, 0).
costo_arco(4, 5, 23).
costo_arco(4, 6, 7).

costo_arco(5, 1, 17).
costo_arco(5, 2, 6).
costo_arco(5, 3, 19).
costo_arco(5, 4, 23).
costo_arco(5, 5, 0).
costo_arco(5, 6, 3).

costo_arco(6, 1, 22).
costo_arco(6, 2, 14).
costo_arco(6, 3, 9).
costo_arco(6, 4, 4).
costo_arco(6, 5, 21).
costo_arco(6, 6, 0).

